\ENCODING=ISO-8859-1
\Problem name: IVM_pricing_problem

Minimize
 obj: 12.4 y1_1 + 12.8 y1_2 + 16.3 y1_3 + 9.7 y1_4 + 10.9 y1_5 + 13 y1_6
      + 14.8 y1_7 + 12.3 y1_8 + 13.9 y1_9 + 13.7 y1_10 + 13.8 y1_11 + 8.8 y1_12
      + 11.8 y1_13 + 7.7 y2_1 + 12.3 y2_2 + 11.8 y2_3 + 6.9 y2_4 + 8 y2_5
      + 10.8 y2_6 + 11 y2_7 + 9.5 y2_8 + 12.6 y2_9 + 9.8 y2_10 + 9.2 y2_11
      + 7.7 y2_12 + 10.2 y2_13 - 12.6307781816078 x1_1 - 13.3021469486635 x1_2
      - 7.73924731182796 x1_3 - 7.12258064516129 x1_4 - 11.3275326940611 x1_5
      - 12.1844253636763 x1_6 - 13.5573340598235 x1_7 - 7.91397849462366 x1_8
      - 12.7369688056131 x1_9 - 15.2929087936376 x1_10 - 13.4200691065418 x1_11
      - 9.60213876583357 x1_12 - 15.0446725135333 x1_13 - 12.6307781816078 x2_1
      - 13.3021469486635 x2_2 - 7.73924731182796 x2_3 - 7.12258064516129 x2_4
      - 11.3275326940611 x2_5 - 12.1844253636763 x2_6 - 13.5573340598235 x2_7
      - 7.91397849462366 x2_8 - 12.7369688056131 x2_9 - 15.2929087936376 x2_10
      - 13.4200691065418 x2_11 - 9.60213876583357 x2_12
      - 15.0446725135333 x2_13 + 11.3688507273526 h_1 + 11.5739376112262 h_4
      + 18.3872434311642 h_5 + 18.0242255767218 h_6 + 13.804293897327 h_8
      + 13.0371548588812 h_9 + 13.804293897327 h_10
Subject To
 c1_1:      - 2 y1_1 + x1_1 <= 0
 c1_2:      - 2 y1_2 + x1_2 <= 0
 c1_3:      - 2 y1_3 + x1_3 <= 0
 c1_4:      - 2 y1_4 + x1_4 <= 0
 c1_5:      - 2 y1_5 + x1_5 <= 0
 c1_6:      - 2 y1_6 + x1_6 <= 0
 c1_7:      - 2 y1_7 + x1_7 <= 0
 c1_8:      - 2 y1_8 + x1_8 <= 0
 c1_9:      - 2 y1_9 + x1_9 <= 0
 c1_10:     - 2 y1_10 + x1_10 <= 0
 c1_11:     - 2 y1_11 + x1_11 <= 0
 c1_12:     - 2 y1_12 + x1_12 <= 0
 c1_13:     - 2 y1_13 + x1_13 <= 0
 c2_1:      - 2 y2_1 + x2_1 <= 0
 c2_2:      - 2 y2_2 + x2_2 <= 0
 c2_3:      - 2 y2_3 + x2_3 <= 0
 c2_4:      - 2 y2_4 + x2_4 <= 0
 c2_5:      - 2 y2_5 + x2_5 <= 0
 c2_6:      - 2 y2_6 + x2_6 <= 0
 c2_7:      - 2 y2_7 + x2_7 <= 0
 c2_8:      - 2 y2_8 + x2_8 <= 0
 c2_9:      - 2 y2_9 + x2_9 <= 0
 c2_10:     - 2 y2_10 + x2_10 <= 0
 c2_11:     - 2 y2_11 + x2_11 <= 0
 c2_12:     - 2 y2_12 + x2_12 <= 0
 c2_13:     - 2 y2_13 + x2_13 <= 0
 c3_1:      x1_1 + x2_1 <= 9.04
 c3_2:      x1_2 + x2_2 <= 19.23
 c3_3:      x1_3 + x2_3 <= 21.54
 c3_4:      x1_4 + x2_4 <= 13.27
 c3_5:      x1_5 + x2_5 <= 4.54
 c3_6:      x1_6 + x2_6 <= 6.35
 c3_7:      x1_7 + x2_7 <= 5.73
 c3_8:      x1_8 + x2_8 <= 6.38
 c3_9:      x1_9 + x2_9 <= 4.88
 c3_10:     x1_10 + x2_10 <= 15.08
 c3_11:     x1_11 + x2_11 <= 11.38
 c3_12:     x1_12 + x2_12 <= 5.62
 c3_13:     x1_13 + x2_13 <= 11.31
 c4:        1.24 y1_1 + 1.28 y1_2 + 1.63 y1_3 + 0.97 y1_4 + 1.09 y1_5
            + 1.3 y1_6 + 1.48 y1_7 + 1.23 y1_8 + 1.39 y1_9 + 1.37 y1_10
            + 1.38 y1_11 + 0.88 y1_12 + 1.18 y1_13 + 0.77 y2_1 + 1.23 y2_2
            + 1.18 y2_3 + 0.69 y2_4 + 0.8 y2_5 + 1.08 y2_6 + 1.1 y2_7
            + 0.95 y2_8 + 1.26 y2_9 + 0.98 y2_10 + 0.92 y2_11 + 0.77 y2_12
            + 1.02 y2_13 + 1.97 x1_1 + 2.22 x1_2 + 1.8 x1_3 + 2.07 x1_4
            + 1.73 x1_5 + 2.68 x1_6 + 2.17 x1_7 + 2.3 x1_8 + 2.26 x1_9
            + 2.16 x1_10 + 1.9 x1_11 + 1.98 x1_12 + 2.15 x1_13 + 1.97 x2_1
            + 2.22 x2_2 + 1.8 x2_3 + 2.07 x2_4 + 1.73 x2_5 + 2.68 x2_6
            + 2.17 x2_7 + 2.3 x2_8 + 2.26 x2_9 + 2.16 x2_10 + 1.9 x2_11
            + 1.98 x2_12 + 2.15 x2_13 <= 7.5
 c5:        y1_1 + y1_2 + y1_3 + y1_4 + y1_5 + y1_6 + y1_7 + y1_8 + y1_9
            + y1_10 + y1_11 + y1_12 + y1_13  = 1
 c6:        h_1 + h_2 + h_3 + h_4 + h_5 + h_6 + h_7 + h_8 + h_9 + h_10  = 1
 c7_1_1:    y1_1 - g_1_1 + h_1 <= 1
 c7_1_2:    y1_1 - g_1_2 + h_2 <= 1
 c7_1_3:    y1_1 - g_1_3 + h_3 <= 1
 c7_1_4:    y1_1 - g_1_4 + h_4 <= 1
 c7_1_5:    y1_1 - g_1_5 + h_5 <= 1
 c7_1_6:    y1_1 - g_1_6 + h_6 <= 1
 c7_1_7:    y1_1 - g_1_7 + h_7 <= 1
 c7_1_8:    y1_1 - g_1_8 + h_8 <= 1
 c7_1_9:    y1_1 - g_1_9 + h_9 <= 1
 c7_1_10:   y1_1 - g_1_10 + h_10 <= 1
 c7_2_1:    y1_2 - g_2_1 + h_1 <= 1
 c7_2_2:    y1_2 - g_2_2 + h_2 <= 1
 c7_2_3:    y1_2 - g_2_3 + h_3 <= 1
 c7_2_4:    y1_2 - g_2_4 + h_4 <= 1
 c7_2_5:    y1_2 - g_2_5 + h_5 <= 1
 c7_2_6:    y1_2 - g_2_6 + h_6 <= 1
 c7_2_7:    y1_2 - g_2_7 + h_7 <= 1
 c7_2_8:    y1_2 - g_2_8 + h_8 <= 1
 c7_2_9:    y1_2 - g_2_9 + h_9 <= 1
 c7_2_10:   y1_2 - g_2_10 + h_10 <= 1
 c7_3_1:    y1_3 - g_3_1 + h_1 <= 1
 c7_3_2:    y1_3 - g_3_2 + h_2 <= 1
 c7_3_3:    y1_3 - g_3_3 + h_3 <= 1
 c7_3_4:    y1_3 - g_3_4 + h_4 <= 1
 c7_3_5:    y1_3 - g_3_5 + h_5 <= 1
 c7_3_6:    y1_3 - g_3_6 + h_6 <= 1
 c7_3_7:    y1_3 - g_3_7 + h_7 <= 1
 c7_3_8:    y1_3 - g_3_8 + h_8 <= 1
 c7_3_9:    y1_3 - g_3_9 + h_9 <= 1
 c7_3_10:   y1_3 - g_3_10 + h_10 <= 1
 c7_4_1:    y1_4 - g_4_1 + h_1 <= 1
 c7_4_2:    y1_4 - g_4_2 + h_2 <= 1
 c7_4_3:    y1_4 - g_4_3 + h_3 <= 1
 c7_4_4:    y1_4 - g_4_4 + h_4 <= 1
 c7_4_5:    y1_4 - g_4_5 + h_5 <= 1
 c7_4_6:    y1_4 - g_4_6 + h_6 <= 1
 c7_4_7:    y1_4 - g_4_7 + h_7 <= 1
 c7_4_8:    y1_4 - g_4_8 + h_8 <= 1
 c7_4_9:    y1_4 - g_4_9 + h_9 <= 1
 c7_4_10:   y1_4 - g_4_10 + h_10 <= 1
 c7_5_1:    y1_5 - g_5_1 + h_1 <= 1
 c7_5_2:    y1_5 - g_5_2 + h_2 <= 1
 c7_5_3:    y1_5 - g_5_3 + h_3 <= 1
 c7_5_4:    y1_5 - g_5_4 + h_4 <= 1
 c7_5_5:    y1_5 - g_5_5 + h_5 <= 1
 c7_5_6:    y1_5 - g_5_6 + h_6 <= 1
 c7_5_7:    y1_5 - g_5_7 + h_7 <= 1
 c7_5_8:    y1_5 - g_5_8 + h_8 <= 1
 c7_5_9:    y1_5 - g_5_9 + h_9 <= 1
 c7_5_10:   y1_5 - g_5_10 + h_10 <= 1
 c7_6_1:    y1_6 - g_6_1 + h_1 <= 1
 c7_6_2:    y1_6 - g_6_2 + h_2 <= 1
 c7_6_3:    y1_6 - g_6_3 + h_3 <= 1
 c7_6_4:    y1_6 - g_6_4 + h_4 <= 1
 c7_6_5:    y1_6 - g_6_5 + h_5 <= 1
 c7_6_6:    y1_6 - g_6_6 + h_6 <= 1
 c7_6_7:    y1_6 - g_6_7 + h_7 <= 1
 c7_6_8:    y1_6 - g_6_8 + h_8 <= 1
 c7_6_9:    y1_6 - g_6_9 + h_9 <= 1
 c7_6_10:   y1_6 - g_6_10 + h_10 <= 1
 c7_7_1:    y1_7 - g_7_1 + h_1 <= 1
 c7_7_2:    y1_7 - g_7_2 + h_2 <= 1
 c7_7_3:    y1_7 - g_7_3 + h_3 <= 1
 c7_7_4:    y1_7 - g_7_4 + h_4 <= 1
 c7_7_5:    y1_7 - g_7_5 + h_5 <= 1
 c7_7_6:    y1_7 - g_7_6 + h_6 <= 1
 c7_7_7:    y1_7 - g_7_7 + h_7 <= 1
 c7_7_8:    y1_7 - g_7_8 + h_8 <= 1
 c7_7_9:    y1_7 - g_7_9 + h_9 <= 1
 c7_7_10:   y1_7 - g_7_10 + h_10 <= 1
 c7_8_1:    y1_8 - g_8_1 + h_1 <= 1
 c7_8_2:    y1_8 - g_8_2 + h_2 <= 1
 c7_8_3:    y1_8 - g_8_3 + h_3 <= 1
 c7_8_4:    y1_8 - g_8_4 + h_4 <= 1
 c7_8_5:    y1_8 - g_8_5 + h_5 <= 1
 c7_8_6:    y1_8 - g_8_6 + h_6 <= 1
 c7_8_7:    y1_8 - g_8_7 + h_7 <= 1
 c7_8_8:    y1_8 - g_8_8 + h_8 <= 1
 c7_8_9:    y1_8 - g_8_9 + h_9 <= 1
 c7_8_10:   y1_8 - g_8_10 + h_10 <= 1
 c7_9_1:    y1_9 - g_9_1 + h_1 <= 1
 c7_9_2:    y1_9 - g_9_2 + h_2 <= 1
 c7_9_3:    y1_9 - g_9_3 + h_3 <= 1
 c7_9_4:    y1_9 - g_9_4 + h_4 <= 1
 c7_9_5:    y1_9 - g_9_5 + h_5 <= 1
 c7_9_6:    y1_9 - g_9_6 + h_6 <= 1
 c7_9_7:    y1_9 - g_9_7 + h_7 <= 1
 c7_9_8:    y1_9 - g_9_8 + h_8 <= 1
 c7_9_9:    y1_9 - g_9_9 + h_9 <= 1
 c7_9_10:   y1_9 - g_9_10 + h_10 <= 1
 c7_10_1:   y1_10 - g_10_1 + h_1 <= 1
 c7_10_2:   y1_10 - g_10_2 + h_2 <= 1
 c7_10_3:   y1_10 - g_10_3 + h_3 <= 1
 c7_10_4:   y1_10 - g_10_4 + h_4 <= 1
 c7_10_5:   y1_10 - g_10_5 + h_5 <= 1
 c7_10_6:   y1_10 - g_10_6 + h_6 <= 1
 c7_10_7:   y1_10 - g_10_7 + h_7 <= 1
 c7_10_8:   y1_10 - g_10_8 + h_8 <= 1
 c7_10_9:   y1_10 - g_10_9 + h_9 <= 1
 c7_10_10:  y1_10 - g_10_10 + h_10 <= 1
 c7_11_1:   y1_11 - g_11_1 + h_1 <= 1
 c7_11_2:   y1_11 - g_11_2 + h_2 <= 1
 c7_11_3:   y1_11 - g_11_3 + h_3 <= 1
 c7_11_4:   y1_11 - g_11_4 + h_4 <= 1
 c7_11_5:   y1_11 - g_11_5 + h_5 <= 1
 c7_11_6:   y1_11 - g_11_6 + h_6 <= 1
 c7_11_7:   y1_11 - g_11_7 + h_7 <= 1
 c7_11_8:   y1_11 - g_11_8 + h_8 <= 1
 c7_11_9:   y1_11 - g_11_9 + h_9 <= 1
 c7_11_10:  y1_11 - g_11_10 + h_10 <= 1
 c7_12_1:   y1_12 - g_12_1 + h_1 <= 1
 c7_12_2:   y1_12 - g_12_2 + h_2 <= 1
 c7_12_3:   y1_12 - g_12_3 + h_3 <= 1
 c7_12_4:   y1_12 - g_12_4 + h_4 <= 1
 c7_12_5:   y1_12 - g_12_5 + h_5 <= 1
 c7_12_6:   y1_12 - g_12_6 + h_6 <= 1
 c7_12_7:   y1_12 - g_12_7 + h_7 <= 1
 c7_12_8:   y1_12 - g_12_8 + h_8 <= 1
 c7_12_9:   y1_12 - g_12_9 + h_9 <= 1
 c7_12_10:  y1_12 - g_12_10 + h_10 <= 1
 c7_13_1:   y1_13 - g_13_1 + h_1 <= 1
 c7_13_2:   y1_13 - g_13_2 + h_2 <= 1
 c7_13_3:   y1_13 - g_13_3 + h_3 <= 1
 c7_13_4:   y1_13 - g_13_4 + h_4 <= 1
 c7_13_5:   y1_13 - g_13_5 + h_5 <= 1
 c7_13_6:   y1_13 - g_13_6 + h_6 <= 1
 c7_13_7:   y1_13 - g_13_7 + h_7 <= 1
 c7_13_8:   y1_13 - g_13_8 + h_8 <= 1
 c7_13_9:   y1_13 - g_13_9 + h_9 <= 1
 c7_13_10:  y1_13 - g_13_10 + h_10 <= 1
 c8_1_1:    y2_1 - 1000 g_1_1 + h_1 <= 1
 c8_1_2:    y2_1 - 1000 g_1_2 + h_2 <= 1
 c8_1_3:    y2_1 - 1000 g_1_3 + h_3 <= 1
 c8_1_4:    y2_1 - 1000 g_1_4 + h_4 <= 1
 c8_1_5:    y2_1 - 1000 g_1_5 + h_5 <= 1
 c8_1_6:    y2_1 - 1000 g_1_6 + h_6 <= 1
 c8_1_7:    y2_1 - 1000 g_1_7 + h_7 <= 1
 c8_1_8:    y2_1 - 1000 g_1_8 + h_8 <= 1
 c8_1_9:    y2_1 - 1000 g_1_9 + h_9 <= 1
 c8_1_10:   y2_1 - 1000 g_1_10 + h_10 <= 1
 c8_2_1:    y2_2 - 1000 g_2_1 + h_1 <= 1
 c8_2_2:    y2_2 - 1000 g_2_2 + h_2 <= 1
 c8_2_3:    y2_2 - 1000 g_2_3 + h_3 <= 1
 c8_2_4:    y2_2 - 1000 g_2_4 + h_4 <= 1
 c8_2_5:    y2_2 - 1000 g_2_5 + h_5 <= 1
 c8_2_6:    y2_2 - 1000 g_2_6 + h_6 <= 1
 c8_2_7:    y2_2 - 1000 g_2_7 + h_7 <= 1
 c8_2_8:    y2_2 - 1000 g_2_8 + h_8 <= 1
 c8_2_9:    y2_2 - 1000 g_2_9 + h_9 <= 1
 c8_2_10:   y2_2 - 1000 g_2_10 + h_10 <= 1
 c8_3_1:    y2_3 - 1000 g_3_1 + h_1 <= 1
 c8_3_2:    y2_3 - 1000 g_3_2 + h_2 <= 1
 c8_3_3:    y2_3 - 1000 g_3_3 + h_3 <= 1
 c8_3_4:    y2_3 - 1000 g_3_4 + h_4 <= 1
 c8_3_5:    y2_3 - 1000 g_3_5 + h_5 <= 1
 c8_3_6:    y2_3 - 1000 g_3_6 + h_6 <= 1
 c8_3_7:    y2_3 - 1000 g_3_7 + h_7 <= 1
 c8_3_8:    y2_3 - 1000 g_3_8 + h_8 <= 1
 c8_3_9:    y2_3 - 1000 g_3_9 + h_9 <= 1
 c8_3_10:   y2_3 - 1000 g_3_10 + h_10 <= 1
 c8_4_1:    y2_4 - 1000 g_4_1 + h_1 <= 1
 c8_4_2:    y2_4 - 1000 g_4_2 + h_2 <= 1
 c8_4_3:    y2_4 - 1000 g_4_3 + h_3 <= 1
 c8_4_4:    y2_4 - 1000 g_4_4 + h_4 <= 1
 c8_4_5:    y2_4 - 1000 g_4_5 + h_5 <= 1
 c8_4_6:    y2_4 - 1000 g_4_6 + h_6 <= 1
 c8_4_7:    y2_4 - 1000 g_4_7 + h_7 <= 1
 c8_4_8:    y2_4 - 1000 g_4_8 + h_8 <= 1
 c8_4_9:    y2_4 - 1000 g_4_9 + h_9 <= 1
 c8_4_10:   y2_4 - 1000 g_4_10 + h_10 <= 1
 c8_5_1:    y2_5 - 1000 g_5_1 + h_1 <= 1
 c8_5_2:    y2_5 - 1000 g_5_2 + h_2 <= 1
 c8_5_3:    y2_5 - 1000 g_5_3 + h_3 <= 1
 c8_5_4:    y2_5 - 1000 g_5_4 + h_4 <= 1
 c8_5_5:    y2_5 - 1000 g_5_5 + h_5 <= 1
 c8_5_6:    y2_5 - 1000 g_5_6 + h_6 <= 1
 c8_5_7:    y2_5 - 1000 g_5_7 + h_7 <= 1
 c8_5_8:    y2_5 - 1000 g_5_8 + h_8 <= 1
 c8_5_9:    y2_5 - 1000 g_5_9 + h_9 <= 1
 c8_5_10:   y2_5 - 1000 g_5_10 + h_10 <= 1
 c8_6_1:    y2_6 - 1000 g_6_1 + h_1 <= 1
 c8_6_2:    y2_6 - 1000 g_6_2 + h_2 <= 1
 c8_6_3:    y2_6 - 1000 g_6_3 + h_3 <= 1
 c8_6_4:    y2_6 - 1000 g_6_4 + h_4 <= 1
 c8_6_5:    y2_6 - 1000 g_6_5 + h_5 <= 1
 c8_6_6:    y2_6 - 1000 g_6_6 + h_6 <= 1
 c8_6_7:    y2_6 - 1000 g_6_7 + h_7 <= 1
 c8_6_8:    y2_6 - 1000 g_6_8 + h_8 <= 1
 c8_6_9:    y2_6 - 1000 g_6_9 + h_9 <= 1
 c8_6_10:   y2_6 - 1000 g_6_10 + h_10 <= 1
 c8_7_1:    y2_7 - 1000 g_7_1 + h_1 <= 1
 c8_7_2:    y2_7 - 1000 g_7_2 + h_2 <= 1
 c8_7_3:    y2_7 - 1000 g_7_3 + h_3 <= 1
 c8_7_4:    y2_7 - 1000 g_7_4 + h_4 <= 1
 c8_7_5:    y2_7 - 1000 g_7_5 + h_5 <= 1
 c8_7_6:    y2_7 - 1000 g_7_6 + h_6 <= 1
 c8_7_7:    y2_7 - 1000 g_7_7 + h_7 <= 1
 c8_7_8:    y2_7 - 1000 g_7_8 + h_8 <= 1
 c8_7_9:    y2_7 - 1000 g_7_9 + h_9 <= 1
 c8_7_10:   y2_7 - 1000 g_7_10 + h_10 <= 1
 c8_8_1:    y2_8 - 1000 g_8_1 + h_1 <= 1
 c8_8_2:    y2_8 - 1000 g_8_2 + h_2 <= 1
 c8_8_3:    y2_8 - 1000 g_8_3 + h_3 <= 1
 c8_8_4:    y2_8 - 1000 g_8_4 + h_4 <= 1
 c8_8_5:    y2_8 - 1000 g_8_5 + h_5 <= 1
 c8_8_6:    y2_8 - 1000 g_8_6 + h_6 <= 1
 c8_8_7:    y2_8 - 1000 g_8_7 + h_7 <= 1
 c8_8_8:    y2_8 - 1000 g_8_8 + h_8 <= 1
 c8_8_9:    y2_8 - 1000 g_8_9 + h_9 <= 1
 c8_8_10:   y2_8 - 1000 g_8_10 + h_10 <= 1
 c8_9_1:    y2_9 - 1000 g_9_1 + h_1 <= 1
 c8_9_2:    y2_9 - 1000 g_9_2 + h_2 <= 1
 c8_9_3:    y2_9 - 1000 g_9_3 + h_3 <= 1
 c8_9_4:    y2_9 - 1000 g_9_4 + h_4 <= 1
 c8_9_5:    y2_9 - 1000 g_9_5 + h_5 <= 1
 c8_9_6:    y2_9 - 1000 g_9_6 + h_6 <= 1
 c8_9_7:    y2_9 - 1000 g_9_7 + h_7 <= 1
 c8_9_8:    y2_9 - 1000 g_9_8 + h_8 <= 1
 c8_9_9:    y2_9 - 1000 g_9_9 + h_9 <= 1
 c8_9_10:   y2_9 - 1000 g_9_10 + h_10 <= 1
 c8_10_1:   y2_10 - 1000 g_10_1 + h_1 <= 1
 c8_10_2:   y2_10 - 1000 g_10_2 + h_2 <= 1
 c8_10_3:   y2_10 - 1000 g_10_3 + h_3 <= 1
 c8_10_4:   y2_10 - 1000 g_10_4 + h_4 <= 1
 c8_10_5:   y2_10 - 1000 g_10_5 + h_5 <= 1
 c8_10_6:   y2_10 - 1000 g_10_6 + h_6 <= 1
 c8_10_7:   y2_10 - 1000 g_10_7 + h_7 <= 1
 c8_10_8:   y2_10 - 1000 g_10_8 + h_8 <= 1
 c8_10_9:   y2_10 - 1000 g_10_9 + h_9 <= 1
 c8_10_10:  y2_10 - 1000 g_10_10 + h_10 <= 1
 c8_11_1:   y2_11 - 1000 g_11_1 + h_1 <= 1
 c8_11_2:   y2_11 - 1000 g_11_2 + h_2 <= 1
 c8_11_3:   y2_11 - 1000 g_11_3 + h_3 <= 1
 c8_11_4:   y2_11 - 1000 g_11_4 + h_4 <= 1
 c8_11_5:   y2_11 - 1000 g_11_5 + h_5 <= 1
 c8_11_6:   y2_11 - 1000 g_11_6 + h_6 <= 1
 c8_11_7:   y2_11 - 1000 g_11_7 + h_7 <= 1
 c8_11_8:   y2_11 - 1000 g_11_8 + h_8 <= 1
 c8_11_9:   y2_11 - 1000 g_11_9 + h_9 <= 1
 c8_11_10:  y2_11 - 1000 g_11_10 + h_10 <= 1
 c8_12_1:   y2_12 - 1000 g_12_1 + h_1 <= 1
 c8_12_2:   y2_12 - 1000 g_12_2 + h_2 <= 1
 c8_12_3:   y2_12 - 1000 g_12_3 + h_3 <= 1
 c8_12_4:   y2_12 - 1000 g_12_4 + h_4 <= 1
 c8_12_5:   y2_12 - 1000 g_12_5 + h_5 <= 1
 c8_12_6:   y2_12 - 1000 g_12_6 + h_6 <= 1
 c8_12_7:   y2_12 - 1000 g_12_7 + h_7 <= 1
 c8_12_8:   y2_12 - 1000 g_12_8 + h_8 <= 1
 c8_12_9:   y2_12 - 1000 g_12_9 + h_9 <= 1
 c8_12_10:  y2_12 - 1000 g_12_10 + h_10 <= 1
 c8_13_1:   y2_13 - 1000 g_13_1 + h_1 <= 1
 c8_13_2:   y2_13 - 1000 g_13_2 + h_2 <= 1
 c8_13_3:   y2_13 - 1000 g_13_3 + h_3 <= 1
 c8_13_4:   y2_13 - 1000 g_13_4 + h_4 <= 1
 c8_13_5:   y2_13 - 1000 g_13_5 + h_5 <= 1
 c8_13_6:   y2_13 - 1000 g_13_6 + h_6 <= 1
 c8_13_7:   y2_13 - 1000 g_13_7 + h_7 <= 1
 c8_13_8:   y2_13 - 1000 g_13_8 + h_8 <= 1
 c8_13_9:   y2_13 - 1000 g_13_9 + h_9 <= 1
 c8_13_10:  y2_13 - 1000 g_13_10 + h_10 <= 1
 c9_1_1:    g_1_1 - h_1 <= 0
 c9_1_2:    g_1_2 - h_2 <= 0
 c9_1_3:    g_1_3 - h_3 <= 0
 c9_1_4:    g_1_4 - h_4 <= 0
 c9_1_5:    g_1_5 - h_5 <= 0
 c9_1_6:    g_1_6 - h_6 <= 0
 c9_1_7:    g_1_7 - h_7 <= 0
 c9_1_8:    g_1_8 - h_8 <= 0
 c9_1_9:    g_1_9 - h_9 <= 0
 c9_1_10:   g_1_10 - h_10 <= 0
 c9_2_1:    g_2_1 - h_1 <= 0
 c9_2_2:    g_2_2 - h_2 <= 0
 c9_2_3:    g_2_3 - h_3 <= 0
 c9_2_4:    g_2_4 - h_4 <= 0
 c9_2_5:    g_2_5 - h_5 <= 0
 c9_2_6:    g_2_6 - h_6 <= 0
 c9_2_7:    g_2_7 - h_7 <= 0
 c9_2_8:    g_2_8 - h_8 <= 0
 c9_2_9:    g_2_9 - h_9 <= 0
 c9_2_10:   g_2_10 - h_10 <= 0
 c9_3_1:    g_3_1 - h_1 <= 0
 c9_3_2:    g_3_2 - h_2 <= 0
 c9_3_3:    g_3_3 - h_3 <= 0
 c9_3_4:    g_3_4 - h_4 <= 0
 c9_3_5:    g_3_5 - h_5 <= 0
 c9_3_6:    g_3_6 - h_6 <= 0
 c9_3_7:    g_3_7 - h_7 <= 0
 c9_3_8:    g_3_8 - h_8 <= 0
 c9_3_9:    g_3_9 - h_9 <= 0
 c9_3_10:   g_3_10 - h_10 <= 0
 c9_4_1:    g_4_1 - h_1 <= 0
 c9_4_2:    g_4_2 - h_2 <= 0
 c9_4_3:    g_4_3 - h_3 <= 0
 c9_4_4:    g_4_4 - h_4 <= 0
 c9_4_5:    g_4_5 - h_5 <= 0
 c9_4_6:    g_4_6 - h_6 <= 0
 c9_4_7:    g_4_7 - h_7 <= 0
 c9_4_8:    g_4_8 - h_8 <= 0
 c9_4_9:    g_4_9 - h_9 <= 0
 c9_4_10:   g_4_10 - h_10 <= 0
 c9_5_1:    g_5_1 - h_1 <= 0
 c9_5_2:    g_5_2 - h_2 <= 0
 c9_5_3:    g_5_3 - h_3 <= 0
 c9_5_4:    g_5_4 - h_4 <= 0
 c9_5_5:    g_5_5 - h_5 <= 0
 c9_5_6:    g_5_6 - h_6 <= 0
 c9_5_7:    g_5_7 - h_7 <= 0
 c9_5_8:    g_5_8 - h_8 <= 0
 c9_5_9:    g_5_9 - h_9 <= 0
 c9_5_10:   g_5_10 - h_10 <= 0
 c9_6_1:    g_6_1 - h_1 <= 0
 c9_6_2:    g_6_2 - h_2 <= 0
 c9_6_3:    g_6_3 - h_3 <= 0
 c9_6_4:    g_6_4 - h_4 <= 0
 c9_6_5:    g_6_5 - h_5 <= 0
 c9_6_6:    g_6_6 - h_6 <= 0
 c9_6_7:    g_6_7 - h_7 <= 0
 c9_6_8:    g_6_8 - h_8 <= 0
 c9_6_9:    g_6_9 - h_9 <= 0
 c9_6_10:   g_6_10 - h_10 <= 0
 c9_7_1:    g_7_1 - h_1 <= 0
 c9_7_2:    g_7_2 - h_2 <= 0
 c9_7_3:    g_7_3 - h_3 <= 0
 c9_7_4:    g_7_4 - h_4 <= 0
 c9_7_5:    g_7_5 - h_5 <= 0
 c9_7_6:    g_7_6 - h_6 <= 0
 c9_7_7:    g_7_7 - h_7 <= 0
 c9_7_8:    g_7_8 - h_8 <= 0
 c9_7_9:    g_7_9 - h_9 <= 0
 c9_7_10:   g_7_10 - h_10 <= 0
 c9_8_1:    g_8_1 - h_1 <= 0
 c9_8_2:    g_8_2 - h_2 <= 0
 c9_8_3:    g_8_3 - h_3 <= 0
 c9_8_4:    g_8_4 - h_4 <= 0
 c9_8_5:    g_8_5 - h_5 <= 0
 c9_8_6:    g_8_6 - h_6 <= 0
 c9_8_7:    g_8_7 - h_7 <= 0
 c9_8_8:    g_8_8 - h_8 <= 0
 c9_8_9:    g_8_9 - h_9 <= 0
 c9_8_10:   g_8_10 - h_10 <= 0
 c9_9_1:    g_9_1 - h_1 <= 0
 c9_9_2:    g_9_2 - h_2 <= 0
 c9_9_3:    g_9_3 - h_3 <= 0
 c9_9_4:    g_9_4 - h_4 <= 0
 c9_9_5:    g_9_5 - h_5 <= 0
 c9_9_6:    g_9_6 - h_6 <= 0
 c9_9_7:    g_9_7 - h_7 <= 0
 c9_9_8:    g_9_8 - h_8 <= 0
 c9_9_9:    g_9_9 - h_9 <= 0
 c9_9_10:   g_9_10 - h_10 <= 0
 c9_10_1:   g_10_1 - h_1 <= 0
 c9_10_2:   g_10_2 - h_2 <= 0
 c9_10_3:   g_10_3 - h_3 <= 0
 c9_10_4:   g_10_4 - h_4 <= 0
 c9_10_5:   g_10_5 - h_5 <= 0
 c9_10_6:   g_10_6 - h_6 <= 0
 c9_10_7:   g_10_7 - h_7 <= 0
 c9_10_8:   g_10_8 - h_8 <= 0
 c9_10_9:   g_10_9 - h_9 <= 0
 c9_10_10:  g_10_10 - h_10 <= 0
 c9_11_1:   g_11_1 - h_1 <= 0
 c9_11_2:   g_11_2 - h_2 <= 0
 c9_11_3:   g_11_3 - h_3 <= 0
 c9_11_4:   g_11_4 - h_4 <= 0
 c9_11_5:   g_11_5 - h_5 <= 0
 c9_11_6:   g_11_6 - h_6 <= 0
 c9_11_7:   g_11_7 - h_7 <= 0
 c9_11_8:   g_11_8 - h_8 <= 0
 c9_11_9:   g_11_9 - h_9 <= 0
 c9_11_10:  g_11_10 - h_10 <= 0
 c9_12_1:   g_12_1 - h_1 <= 0
 c9_12_2:   g_12_2 - h_2 <= 0
 c9_12_3:   g_12_3 - h_3 <= 0
 c9_12_4:   g_12_4 - h_4 <= 0
 c9_12_5:   g_12_5 - h_5 <= 0
 c9_12_6:   g_12_6 - h_6 <= 0
 c9_12_7:   g_12_7 - h_7 <= 0
 c9_12_8:   g_12_8 - h_8 <= 0
 c9_12_9:   g_12_9 - h_9 <= 0
 c9_12_10:  g_12_10 - h_10 <= 0
 c9_13_1:   g_13_1 - h_1 <= 0
 c9_13_2:   g_13_2 - h_2 <= 0
 c9_13_3:   g_13_3 - h_3 <= 0
 c9_13_4:   g_13_4 - h_4 <= 0
 c9_13_5:   g_13_5 - h_5 <= 0
 c9_13_6:   g_13_6 - h_6 <= 0
 c9_13_7:   g_13_7 - h_7 <= 0
 c9_13_8:   g_13_8 - h_8 <= 0
 c9_13_9:   g_13_9 - h_9 <= 0
 c9_13_10:  g_13_10 - h_10 <= 0
 c10_1_1:   - y1_1 - y2_1 + g_1_1 <= 0
 c10_1_2:   - y1_1 - y2_1 + g_1_2 <= 0
 c10_1_3:   - y1_1 - y2_1 + g_1_3 <= 0
 c10_1_4:   - y1_1 - y2_1 + g_1_4 <= 0
 c10_1_5:   - y1_1 - y2_1 + g_1_5 <= 0
 c10_1_6:   - y1_1 - y2_1 + g_1_6 <= 0
 c10_1_7:   - y1_1 - y2_1 + g_1_7 <= 0
 c10_1_8:   - y1_1 - y2_1 + g_1_8 <= 0
 c10_1_9:   - y1_1 - y2_1 + g_1_9 <= 0
 c10_1_10:  - y1_1 - y2_1 + g_1_10 <= 0
 c10_2_1:   - y1_2 - y2_2 + g_2_1 <= 0
 c10_2_2:   - y1_2 - y2_2 + g_2_2 <= 0
 c10_2_3:   - y1_2 - y2_2 + g_2_3 <= 0
 c10_2_4:   - y1_2 - y2_2 + g_2_4 <= 0
 c10_2_5:   - y1_2 - y2_2 + g_2_5 <= 0
 c10_2_6:   - y1_2 - y2_2 + g_2_6 <= 0
 c10_2_7:   - y1_2 - y2_2 + g_2_7 <= 0
 c10_2_8:   - y1_2 - y2_2 + g_2_8 <= 0
 c10_2_9:   - y1_2 - y2_2 + g_2_9 <= 0
 c10_2_10:  - y1_2 - y2_2 + g_2_10 <= 0
 c10_3_1:   - y1_3 - y2_3 + g_3_1 <= 0
 c10_3_2:   - y1_3 - y2_3 + g_3_2 <= 0
 c10_3_3:   - y1_3 - y2_3 + g_3_3 <= 0
 c10_3_4:   - y1_3 - y2_3 + g_3_4 <= 0
 c10_3_5:   - y1_3 - y2_3 + g_3_5 <= 0
 c10_3_6:   - y1_3 - y2_3 + g_3_6 <= 0
 c10_3_7:   - y1_3 - y2_3 + g_3_7 <= 0
 c10_3_8:   - y1_3 - y2_3 + g_3_8 <= 0
 c10_3_9:   - y1_3 - y2_3 + g_3_9 <= 0
 c10_3_10:  - y1_3 - y2_3 + g_3_10 <= 0
 c10_4_1:   - y1_4 - y2_4 + g_4_1 <= 0
 c10_4_2:   - y1_4 - y2_4 + g_4_2 <= 0
 c10_4_3:   - y1_4 - y2_4 + g_4_3 <= 0
 c10_4_4:   - y1_4 - y2_4 + g_4_4 <= 0
 c10_4_5:   - y1_4 - y2_4 + g_4_5 <= 0
 c10_4_6:   - y1_4 - y2_4 + g_4_6 <= 0
 c10_4_7:   - y1_4 - y2_4 + g_4_7 <= 0
 c10_4_8:   - y1_4 - y2_4 + g_4_8 <= 0
 c10_4_9:   - y1_4 - y2_4 + g_4_9 <= 0
 c10_4_10:  - y1_4 - y2_4 + g_4_10 <= 0
 c10_5_1:   - y1_5 - y2_5 + g_5_1 <= 0
 c10_5_2:   - y1_5 - y2_5 + g_5_2 <= 0
 c10_5_3:   - y1_5 - y2_5 + g_5_3 <= 0
 c10_5_4:   - y1_5 - y2_5 + g_5_4 <= 0
 c10_5_5:   - y1_5 - y2_5 + g_5_5 <= 0
 c10_5_6:   - y1_5 - y2_5 + g_5_6 <= 0
 c10_5_7:   - y1_5 - y2_5 + g_5_7 <= 0
 c10_5_8:   - y1_5 - y2_5 + g_5_8 <= 0
 c10_5_9:   - y1_5 - y2_5 + g_5_9 <= 0
 c10_5_10:  - y1_5 - y2_5 + g_5_10 <= 0
 c10_6_1:   - y1_6 - y2_6 + g_6_1 <= 0
 c10_6_2:   - y1_6 - y2_6 + g_6_2 <= 0
 c10_6_3:   - y1_6 - y2_6 + g_6_3 <= 0
 c10_6_4:   - y1_6 - y2_6 + g_6_4 <= 0
 c10_6_5:   - y1_6 - y2_6 + g_6_5 <= 0
 c10_6_6:   - y1_6 - y2_6 + g_6_6 <= 0
 c10_6_7:   - y1_6 - y2_6 + g_6_7 <= 0
 c10_6_8:   - y1_6 - y2_6 + g_6_8 <= 0
 c10_6_9:   - y1_6 - y2_6 + g_6_9 <= 0
 c10_6_10:  - y1_6 - y2_6 + g_6_10 <= 0
 c10_7_1:   - y1_7 - y2_7 + g_7_1 <= 0
 c10_7_2:   - y1_7 - y2_7 + g_7_2 <= 0
 c10_7_3:   - y1_7 - y2_7 + g_7_3 <= 0
 c10_7_4:   - y1_7 - y2_7 + g_7_4 <= 0
 c10_7_5:   - y1_7 - y2_7 + g_7_5 <= 0
 c10_7_6:   - y1_7 - y2_7 + g_7_6 <= 0
 c10_7_7:   - y1_7 - y2_7 + g_7_7 <= 0
 c10_7_8:   - y1_7 - y2_7 + g_7_8 <= 0
 c10_7_9:   - y1_7 - y2_7 + g_7_9 <= 0
 c10_7_10:  - y1_7 - y2_7 + g_7_10 <= 0
 c10_8_1:   - y1_8 - y2_8 + g_8_1 <= 0
 c10_8_2:   - y1_8 - y2_8 + g_8_2 <= 0
 c10_8_3:   - y1_8 - y2_8 + g_8_3 <= 0
 c10_8_4:   - y1_8 - y2_8 + g_8_4 <= 0
 c10_8_5:   - y1_8 - y2_8 + g_8_5 <= 0
 c10_8_6:   - y1_8 - y2_8 + g_8_6 <= 0
 c10_8_7:   - y1_8 - y2_8 + g_8_7 <= 0
 c10_8_8:   - y1_8 - y2_8 + g_8_8 <= 0
 c10_8_9:   - y1_8 - y2_8 + g_8_9 <= 0
 c10_8_10:  - y1_8 - y2_8 + g_8_10 <= 0
 c10_9_1:   - y1_9 - y2_9 + g_9_1 <= 0
 c10_9_2:   - y1_9 - y2_9 + g_9_2 <= 0
 c10_9_3:   - y1_9 - y2_9 + g_9_3 <= 0
 c10_9_4:   - y1_9 - y2_9 + g_9_4 <= 0
 c10_9_5:   - y1_9 - y2_9 + g_9_5 <= 0
 c10_9_6:   - y1_9 - y2_9 + g_9_6 <= 0
 c10_9_7:   - y1_9 - y2_9 + g_9_7 <= 0
 c10_9_8:   - y1_9 - y2_9 + g_9_8 <= 0
 c10_9_9:   - y1_9 - y2_9 + g_9_9 <= 0
 c10_9_10:  - y1_9 - y2_9 + g_9_10 <= 0
 c10_10_1:  - y1_10 - y2_10 + g_10_1 <= 0
 c10_10_2:  - y1_10 - y2_10 + g_10_2 <= 0
 c10_10_3:  - y1_10 - y2_10 + g_10_3 <= 0
 c10_10_4:  - y1_10 - y2_10 + g_10_4 <= 0
 c10_10_5:  - y1_10 - y2_10 + g_10_5 <= 0
 c10_10_6:  - y1_10 - y2_10 + g_10_6 <= 0
 c10_10_7:  - y1_10 - y2_10 + g_10_7 <= 0
 c10_10_8:  - y1_10 - y2_10 + g_10_8 <= 0
 c10_10_9:  - y1_10 - y2_10 + g_10_9 <= 0
 c10_10_10: - y1_10 - y2_10 + g_10_10 <= 0
 c10_11_1:  - y1_11 - y2_11 + g_11_1 <= 0
 c10_11_2:  - y1_11 - y2_11 + g_11_2 <= 0
 c10_11_3:  - y1_11 - y2_11 + g_11_3 <= 0
 c10_11_4:  - y1_11 - y2_11 + g_11_4 <= 0
 c10_11_5:  - y1_11 - y2_11 + g_11_5 <= 0
 c10_11_6:  - y1_11 - y2_11 + g_11_6 <= 0
 c10_11_7:  - y1_11 - y2_11 + g_11_7 <= 0
 c10_11_8:  - y1_11 - y2_11 + g_11_8 <= 0
 c10_11_9:  - y1_11 - y2_11 + g_11_9 <= 0
 c10_11_10: - y1_11 - y2_11 + g_11_10 <= 0
 c10_12_1:  - y1_12 - y2_12 + g_12_1 <= 0
 c10_12_2:  - y1_12 - y2_12 + g_12_2 <= 0
 c10_12_3:  - y1_12 - y2_12 + g_12_3 <= 0
 c10_12_4:  - y1_12 - y2_12 + g_12_4 <= 0
 c10_12_5:  - y1_12 - y2_12 + g_12_5 <= 0
 c10_12_6:  - y1_12 - y2_12 + g_12_6 <= 0
 c10_12_7:  - y1_12 - y2_12 + g_12_7 <= 0
 c10_12_8:  - y1_12 - y2_12 + g_12_8 <= 0
 c10_12_9:  - y1_12 - y2_12 + g_12_9 <= 0
 c10_12_10: - y1_12 - y2_12 + g_12_10 <= 0
 c10_13_1:  - y1_13 - y2_13 + g_13_1 <= 0
 c10_13_2:  - y1_13 - y2_13 + g_13_2 <= 0
 c10_13_3:  - y1_13 - y2_13 + g_13_3 <= 0
 c10_13_4:  - y1_13 - y2_13 + g_13_4 <= 0
 c10_13_5:  - y1_13 - y2_13 + g_13_5 <= 0
 c10_13_6:  - y1_13 - y2_13 + g_13_6 <= 0
 c10_13_7:  - y1_13 - y2_13 + g_13_7 <= 0
 c10_13_8:  - y1_13 - y2_13 + g_13_8 <= 0
 c10_13_9:  - y1_13 - y2_13 + g_13_9 <= 0
 c10_13_10: - y1_13 - y2_13 + g_13_10 <= 0
 c11_1_1:   1000 y1_1 + 1000 q2_1 <= 2000
 c11_1_2:   1000 y1_1 + 1000 q2_2 <= 1999.81
 c11_1_3:   1000 y1_1 + 1000 q2_3 <= 2000.19
 c11_1_4:   1000 y1_1 + 1000 q2_4 <= 1999.77
 c11_1_5:   1000 y1_1 + 1000 q2_5 <= 1999.84
 c11_1_6:   1000 y1_1 + 1000 q2_6 <= 1999.9
 c11_1_7:   1000 y1_1 + 1000 q2_7 <= 2000.07
 c11_1_8:   1000 y1_1 + 1000 q2_8 <= 1999.9
 c11_1_9:   1000 y1_1 + 1000 q2_9 <= 1999.9
 c11_1_10:  1000 y1_1 + 1000 q2_10 <= 2000.02
 c11_1_11:  1000 y1_1 + 1000 q2_11 <= 2000.07
 c11_1_12:  1000 y1_1 + 1000 q2_12 <= 1999.64
 c11_1_13:  1000 y1_1 + 1000 q2_13 <= 1999.82
 c11_2_1:   1000 y1_2 + 1000 q2_1 <= 2000.19
 c11_2_2:   1000 y1_2 + 1000 q2_2 <= 2000
 c11_2_3:   1000 y1_2 + 1000 q2_3 <= 2000.38
 c11_2_4:   1000 y1_2 + 1000 q2_4 <= 1999.96
 c11_2_5:   1000 y1_2 + 1000 q2_5 <= 2000.03
 c11_2_6:   1000 y1_2 + 1000 q2_6 <= 2000.09
 c11_2_7:   1000 y1_2 + 1000 q2_7 <= 2000.26
 c11_2_8:   1000 y1_2 + 1000 q2_8 <= 2000.09
 c11_2_9:   1000 y1_2 + 1000 q2_9 <= 2000.09
 c11_2_10:  1000 y1_2 + 1000 q2_10 <= 2000.21
 c11_2_11:  1000 y1_2 + 1000 q2_11 <= 2000.26
 c11_2_12:  1000 y1_2 + 1000 q2_12 <= 1999.83
 c11_2_13:  1000 y1_2 + 1000 q2_13 <= 2000.01
 c11_3_1:   1000 y1_3 + 1000 q2_1 <= 1999.81
 c11_3_2:   1000 y1_3 + 1000 q2_2 <= 1999.62
 c11_3_3:   1000 y1_3 + 1000 q2_3 <= 2000
 c11_3_4:   1000 y1_3 + 1000 q2_4 <= 1999.58
 c11_3_5:   1000 y1_3 + 1000 q2_5 <= 1999.65
 c11_3_6:   1000 y1_3 + 1000 q2_6 <= 1999.71
 c11_3_7:   1000 y1_3 + 1000 q2_7 <= 1999.88
 c11_3_8:   1000 y1_3 + 1000 q2_8 <= 1999.71
 c11_3_9:   1000 y1_3 + 1000 q2_9 <= 1999.71
 c11_3_10:  1000 y1_3 + 1000 q2_10 <= 1999.83
 c11_3_11:  1000 y1_3 + 1000 q2_11 <= 1999.88
 c11_3_12:  1000 y1_3 + 1000 q2_12 <= 1999.45
 c11_3_13:  1000 y1_3 + 1000 q2_13 <= 1999.63
 c11_4_1:   1000 y1_4 + 1000 q2_1 <= 2000.23
 c11_4_2:   1000 y1_4 + 1000 q2_2 <= 2000.04
 c11_4_3:   1000 y1_4 + 1000 q2_3 <= 2000.42
 c11_4_4:   1000 y1_4 + 1000 q2_4 <= 2000
 c11_4_5:   1000 y1_4 + 1000 q2_5 <= 2000.07
 c11_4_6:   1000 y1_4 + 1000 q2_6 <= 2000.13
 c11_4_7:   1000 y1_4 + 1000 q2_7 <= 2000.3
 c11_4_8:   1000 y1_4 + 1000 q2_8 <= 2000.13
 c11_4_9:   1000 y1_4 + 1000 q2_9 <= 2000.13
 c11_4_10:  1000 y1_4 + 1000 q2_10 <= 2000.25
 c11_4_11:  1000 y1_4 + 1000 q2_11 <= 2000.3
 c11_4_12:  1000 y1_4 + 1000 q2_12 <= 1999.87
 c11_4_13:  1000 y1_4 + 1000 q2_13 <= 2000.05
 c11_5_1:   1000 y1_5 + 1000 q2_1 <= 2000.16
 c11_5_2:   1000 y1_5 + 1000 q2_2 <= 1999.97
 c11_5_3:   1000 y1_5 + 1000 q2_3 <= 2000.35
 c11_5_4:   1000 y1_5 + 1000 q2_4 <= 1999.93
 c11_5_5:   1000 y1_5 + 1000 q2_5 <= 2000
 c11_5_6:   1000 y1_5 + 1000 q2_6 <= 2000.06
 c11_5_7:   1000 y1_5 + 1000 q2_7 <= 2000.23
 c11_5_8:   1000 y1_5 + 1000 q2_8 <= 2000.06
 c11_5_9:   1000 y1_5 + 1000 q2_9 <= 2000.06
 c11_5_10:  1000 y1_5 + 1000 q2_10 <= 2000.18
 c11_5_11:  1000 y1_5 + 1000 q2_11 <= 2000.23
 c11_5_12:  1000 y1_5 + 1000 q2_12 <= 1999.8
 c11_5_13:  1000 y1_5 + 1000 q2_13 <= 1999.98
 c11_6_1:   1000 y1_6 + 1000 q2_1 <= 2000.1
 c11_6_2:   1000 y1_6 + 1000 q2_2 <= 1999.91
 c11_6_3:   1000 y1_6 + 1000 q2_3 <= 2000.29
 c11_6_4:   1000 y1_6 + 1000 q2_4 <= 1999.87
 c11_6_5:   1000 y1_6 + 1000 q2_5 <= 1999.94
 c11_6_6:   1000 y1_6 + 1000 q2_6 <= 2000
 c11_6_7:   1000 y1_6 + 1000 q2_7 <= 2000.17
 c11_6_8:   1000 y1_6 + 1000 q2_8 <= 2000
 c11_6_9:   1000 y1_6 + 1000 q2_9 <= 2000
 c11_6_10:  1000 y1_6 + 1000 q2_10 <= 2000.12
 c11_6_11:  1000 y1_6 + 1000 q2_11 <= 2000.17
 c11_6_12:  1000 y1_6 + 1000 q2_12 <= 1999.74
 c11_6_13:  1000 y1_6 + 1000 q2_13 <= 1999.92
 c11_7_1:   1000 y1_7 + 1000 q2_1 <= 1999.93
 c11_7_2:   1000 y1_7 + 1000 q2_2 <= 1999.74
 c11_7_3:   1000 y1_7 + 1000 q2_3 <= 2000.12
 c11_7_4:   1000 y1_7 + 1000 q2_4 <= 1999.7
 c11_7_5:   1000 y1_7 + 1000 q2_5 <= 1999.77
 c11_7_6:   1000 y1_7 + 1000 q2_6 <= 1999.83
 c11_7_7:   1000 y1_7 + 1000 q2_7 <= 2000
 c11_7_8:   1000 y1_7 + 1000 q2_8 <= 1999.83
 c11_7_9:   1000 y1_7 + 1000 q2_9 <= 1999.83
 c11_7_10:  1000 y1_7 + 1000 q2_10 <= 1999.95
 c11_7_11:  1000 y1_7 + 1000 q2_11 <= 2000
 c11_7_12:  1000 y1_7 + 1000 q2_12 <= 1999.57
 c11_7_13:  1000 y1_7 + 1000 q2_13 <= 1999.75
 c11_8_1:   1000 y1_8 + 1000 q2_1 <= 2000.1
 c11_8_2:   1000 y1_8 + 1000 q2_2 <= 1999.91
 c11_8_3:   1000 y1_8 + 1000 q2_3 <= 2000.29
 c11_8_4:   1000 y1_8 + 1000 q2_4 <= 1999.87
 c11_8_5:   1000 y1_8 + 1000 q2_5 <= 1999.94
 c11_8_6:   1000 y1_8 + 1000 q2_6 <= 2000
 c11_8_7:   1000 y1_8 + 1000 q2_7 <= 2000.17
 c11_8_8:   1000 y1_8 + 1000 q2_8 <= 2000
 c11_8_9:   1000 y1_8 + 1000 q2_9 <= 2000
 c11_8_10:  1000 y1_8 + 1000 q2_10 <= 2000.12
 c11_8_11:  1000 y1_8 + 1000 q2_11 <= 2000.17
 c11_8_12:  1000 y1_8 + 1000 q2_12 <= 1999.74
 c11_8_13:  1000 y1_8 + 1000 q2_13 <= 1999.92
 c11_9_1:   1000 y1_9 + 1000 q2_1 <= 2000.1
 c11_9_2:   1000 y1_9 + 1000 q2_2 <= 1999.91
 c11_9_3:   1000 y1_9 + 1000 q2_3 <= 2000.29
 c11_9_4:   1000 y1_9 + 1000 q2_4 <= 1999.87
 c11_9_5:   1000 y1_9 + 1000 q2_5 <= 1999.94
 c11_9_6:   1000 y1_9 + 1000 q2_6 <= 2000
 c11_9_7:   1000 y1_9 + 1000 q2_7 <= 2000.17
 c11_9_8:   1000 y1_9 + 1000 q2_8 <= 2000
 c11_9_9:   1000 y1_9 + 1000 q2_9 <= 2000
 c11_9_10:  1000 y1_9 + 1000 q2_10 <= 2000.12
 c11_9_11:  1000 y1_9 + 1000 q2_11 <= 2000.17
 c11_9_12:  1000 y1_9 + 1000 q2_12 <= 1999.74
 c11_9_13:  1000 y1_9 + 1000 q2_13 <= 1999.92
 c11_10_1:  1000 y1_10 + 1000 q2_1 <= 1999.98
 c11_10_2:  1000 y1_10 + 1000 q2_2 <= 1999.79
 c11_10_3:  1000 y1_10 + 1000 q2_3 <= 2000.17
 c11_10_4:  1000 y1_10 + 1000 q2_4 <= 1999.75
 c11_10_5:  1000 y1_10 + 1000 q2_5 <= 1999.82
 c11_10_6:  1000 y1_10 + 1000 q2_6 <= 1999.88
 c11_10_7:  1000 y1_10 + 1000 q2_7 <= 2000.05
 c11_10_8:  1000 y1_10 + 1000 q2_8 <= 1999.88
 c11_10_9:  1000 y1_10 + 1000 q2_9 <= 1999.88
 c11_10_10: 1000 y1_10 + 1000 q2_10 <= 2000
 c11_10_11: 1000 y1_10 + 1000 q2_11 <= 2000.05
 c11_10_12: 1000 y1_10 + 1000 q2_12 <= 1999.62
 c11_10_13: 1000 y1_10 + 1000 q2_13 <= 1999.8
 c11_11_1:  1000 y1_11 + 1000 q2_1 <= 1999.93
 c11_11_2:  1000 y1_11 + 1000 q2_2 <= 1999.74
 c11_11_3:  1000 y1_11 + 1000 q2_3 <= 2000.12
 c11_11_4:  1000 y1_11 + 1000 q2_4 <= 1999.7
 c11_11_5:  1000 y1_11 + 1000 q2_5 <= 1999.77
 c11_11_6:  1000 y1_11 + 1000 q2_6 <= 1999.83
 c11_11_7:  1000 y1_11 + 1000 q2_7 <= 2000
 c11_11_8:  1000 y1_11 + 1000 q2_8 <= 1999.83
 c11_11_9:  1000 y1_11 + 1000 q2_9 <= 1999.83
 c11_11_10: 1000 y1_11 + 1000 q2_10 <= 1999.95
 c11_11_11: 1000 y1_11 + 1000 q2_11 <= 2000
 c11_11_12: 1000 y1_11 + 1000 q2_12 <= 1999.57
 c11_11_13: 1000 y1_11 + 1000 q2_13 <= 1999.75
 c11_12_1:  1000 y1_12 + 1000 q2_1 <= 2000.36
 c11_12_2:  1000 y1_12 + 1000 q2_2 <= 2000.17
 c11_12_3:  1000 y1_12 + 1000 q2_3 <= 2000.55
 c11_12_4:  1000 y1_12 + 1000 q2_4 <= 2000.13
 c11_12_5:  1000 y1_12 + 1000 q2_5 <= 2000.2
 c11_12_6:  1000 y1_12 + 1000 q2_6 <= 2000.26
 c11_12_7:  1000 y1_12 + 1000 q2_7 <= 2000.43
 c11_12_8:  1000 y1_12 + 1000 q2_8 <= 2000.26
 c11_12_9:  1000 y1_12 + 1000 q2_9 <= 2000.26
 c11_12_10: 1000 y1_12 + 1000 q2_10 <= 2000.38
 c11_12_11: 1000 y1_12 + 1000 q2_11 <= 2000.43
 c11_12_12: 1000 y1_12 + 1000 q2_12 <= 2000
 c11_12_13: 1000 y1_12 + 1000 q2_13 <= 2000.18
 c11_13_1:  1000 y1_13 + 1000 q2_1 <= 2000.18
 c11_13_2:  1000 y1_13 + 1000 q2_2 <= 1999.99
 c11_13_3:  1000 y1_13 + 1000 q2_3 <= 2000.37
 c11_13_4:  1000 y1_13 + 1000 q2_4 <= 1999.95
 c11_13_5:  1000 y1_13 + 1000 q2_5 <= 2000.02
 c11_13_6:  1000 y1_13 + 1000 q2_6 <= 2000.08
 c11_13_7:  1000 y1_13 + 1000 q2_7 <= 2000.25
 c11_13_8:  1000 y1_13 + 1000 q2_8 <= 2000.08
 c11_13_9:  1000 y1_13 + 1000 q2_9 <= 2000.08
 c11_13_10: 1000 y1_13 + 1000 q2_10 <= 2000.2
 c11_13_11: 1000 y1_13 + 1000 q2_11 <= 2000.25
 c11_13_12: 1000 y1_13 + 1000 q2_12 <= 1999.82
 c11_13_13: 1000 y1_13 + 1000 q2_13 <= 2000
 c12_1:     - y2_1 + 1000 q2_1 >= 0
 c12_2:     - y2_2 + 1000 q2_2 >= 0
 c12_3:     - y2_3 + 1000 q2_3 >= 0
 c12_4:     - y2_4 + 1000 q2_4 >= 0
 c12_5:     - y2_5 + 1000 q2_5 >= 0
 c12_6:     - y2_6 + 1000 q2_6 >= 0
 c12_7:     - y2_7 + 1000 q2_7 >= 0
 c12_8:     - y2_8 + 1000 q2_8 >= 0
 c12_9:     - y2_9 + 1000 q2_9 >= 0
 c12_10:    - y2_10 + 1000 q2_10 >= 0
 c12_11:    - y2_11 + 1000 q2_11 >= 0
 c12_12:    - y2_12 + 1000 q2_12 >= 0
 c12_13:    - y2_13 + 1000 q2_13 >= 0
 c13_1:     - y2_1 + q2_1 <= 0
 c13_2:     - y2_2 + q2_2 <= 0
 c13_3:     - y2_3 + q2_3 <= 0
 c13_4:     - y2_4 + q2_4 <= 0
 c13_5:     - y2_5 + q2_5 <= 0
 c13_6:     - y2_6 + q2_6 <= 0
 c13_7:     - y2_7 + q2_7 <= 0
 c13_8:     - y2_8 + q2_8 <= 0
 c13_9:     - y2_9 + q2_9 <= 0
 c13_10:    - y2_10 + q2_10 <= 0
 c13_11:    - y2_11 + q2_11 <= 0
 c13_12:    - y2_12 + q2_12 <= 0
 c13_13:    - y2_13 + q2_13 <= 0
 c758:      x1_7 + x2_7 - 0.01 h_9 >= 0
 c759:      x1_1 + x2_1 - 0.01 h_6 >= 0
 c760:      x1_1 + x2_1 - 0.644517766497462 h_6 >= 0
 c761:      x1_3 + x2_3 - 0.01 h_2 >= 0
 c762:      x1_3 + x2_3 - 0.01 h_7 >= 0
 c763:      x1_1 + x2_1 - 1.11659898477157 h_6 >= 0
 c764:      x1_2 + x2_2 - 0.01 h_8 >= 0
 c765:      x1_6 + x2_6 - 0.01 h_1 >= 0
 c766:      x1_2 + x2_2 - 0.01 h_10 >= 0
 c767:      x1_8 + x2_8 - 0.01 h_3 >= 0
 c768:      x1_9 + x2_9 - 0.01 h_4 >= 0
 c769:      x1_1 + x2_1 - 1.12659898477157 h_6 >= 0
 c770:      x1_8 + x2_8 - 0.475217391304348 h_3 >= 0
 c771:      x1_1 + x2_1 - 1.13659898477157 h_6 >= 0
 c772:      x1_8 + x2_8 - 0.485217391304348 h_3 >= 0
 c773:      x1_8 + x2_8 - 0.495217391304348 h_3 >= 0
 c774:      x1_8 + x2_8 - 0.683913043478261 h_3 >= 0
 c775:      x1_10 + x2_10 - 0.01 h_5 >= 0
 c776:      x1_6 + x2_6 - 0.345820895522388 h_1 >= 0
 c777:      x1_4 + x2_4 - 0.01 h_7 >= 0
 c778:      x1_6 + x2_6 - 0.360746268656717 h_1 >= 0
 c779:      x1_6 + x2_6 - 0.370746268656717 h_1 >= 0
 c780:      x1_4 + x2_4 - 0.01 h_2 >= 0
 c781:      x1_6 + x2_6 - 0.380746268656717 h_1 >= 0
 c782:      x1_2 + x2_2 - 0.685675675675675 h_8 >= 0
 c783:      x1_6 + x2_6 - 0.390746268656717 h_1 >= 0
 c784:      x1_6 + x2_6 - 0.400746268656717 h_1 >= 0
 c785:      x1_2 + x2_2 - 0.685675675675675 h_10 >= 0
 c786:      x1_6 + x2_6 - 0.410746268656717 h_1 >= 0
 c787:      x1_8 + x2_8 - 0.693913043478261 h_3 >= 0
 c788:      x1_4 + x2_4 - 0.01 h_3 >= 0
 c789:      x1_4 + x2_4 - 0.483429951690822 h_3 >= 0
 c790:      x1_6 + x2_6 - 0.420746268656717 h_1 >= 0
Bounds
 0 <= y1_1 <= 1
 0 <= y1_2 <= 1
 0 <= y1_3 <= 1
 0 <= y1_4 <= 1
 0 <= y1_5 <= 1
 0 <= y1_6 <= 1
 0 <= y1_7 <= 1
 0 <= y1_8 <= 1
 0 <= y1_9 <= 1
 0 <= y1_10 <= 1
 0 <= y1_11 <= 1
 0 <= y1_12 <= 1
 0 <= y1_13 <= 1
      y2_1 >= 0
      y2_2 >= 0
      y2_3 >= 0
      y2_4 >= 0
      y2_5 >= 0
      y2_6 >= 0
      y2_7 >= 0
      y2_8 >= 0
      y2_9 >= 0
      y2_10 >= 0
      y2_11 >= 0
      y2_12 >= 0
      y2_13 >= 0
 0 <= q2_1 <= 1
 0 <= q2_2 <= 1
 0 <= q2_3 <= 1
 0 <= q2_4 <= 1
 0 <= q2_5 <= 1
 0 <= q2_6 <= 1
 0 <= q2_7 <= 1
 0 <= q2_8 <= 1
 0 <= q2_9 <= 1
 0 <= q2_10 <= 1
 0 <= q2_11 <= 1
 0 <= q2_12 <= 1
 0 <= q2_13 <= 1
 0 <= g_1_1 <= 1
 0 <= g_1_2 <= 1
 0 <= g_1_3 <= 1
 0 <= g_1_4 <= 1
 0 <= g_1_5 <= 1
 0 <= g_1_6 <= 1
 0 <= g_1_7 <= 1
 0 <= g_1_8 <= 1
 0 <= g_1_9 <= 1
 0 <= g_1_10 <= 1
 0 <= g_2_1 <= 1
 0 <= g_2_2 <= 1
 0 <= g_2_3 <= 1
 0 <= g_2_4 <= 1
 0 <= g_2_5 <= 1
 0 <= g_2_6 <= 1
 0 <= g_2_7 <= 1
 0 <= g_2_8 <= 1
 0 <= g_2_9 <= 1
 0 <= g_2_10 <= 1
 0 <= g_3_1 <= 1
 0 <= g_3_2 <= 1
 0 <= g_3_3 <= 1
 0 <= g_3_4 <= 1
 0 <= g_3_5 <= 1
 0 <= g_3_6 <= 1
 0 <= g_3_7 <= 1
 0 <= g_3_8 <= 1
 0 <= g_3_9 <= 1
 0 <= g_3_10 <= 1
 0 <= g_4_1 <= 1
 0 <= g_4_2 <= 1
 0 <= g_4_3 <= 1
 0 <= g_4_4 <= 1
 0 <= g_4_5 <= 1
 0 <= g_4_6 <= 1
 0 <= g_4_7 <= 1
 0 <= g_4_8 <= 1
 0 <= g_4_9 <= 1
 0 <= g_4_10 <= 1
 0 <= g_5_1 <= 1
 0 <= g_5_2 <= 1
 0 <= g_5_3 <= 1
 0 <= g_5_4 <= 1
 0 <= g_5_5 <= 1
 0 <= g_5_6 <= 1
 0 <= g_5_7 <= 1
 0 <= g_5_8 <= 1
 0 <= g_5_9 <= 1
 0 <= g_5_10 <= 1
 0 <= g_6_1 <= 1
 0 <= g_6_2 <= 1
 0 <= g_6_3 <= 1
 0 <= g_6_4 <= 1
 0 <= g_6_5 <= 1
 0 <= g_6_6 <= 1
 0 <= g_6_7 <= 1
 0 <= g_6_8 <= 1
 0 <= g_6_9 <= 1
 0 <= g_6_10 <= 1
 0 <= g_7_1 <= 1
 0 <= g_7_2 <= 1
 0 <= g_7_3 <= 1
 0 <= g_7_4 <= 1
 0 <= g_7_5 <= 1
 0 <= g_7_6 <= 1
 0 <= g_7_7 <= 1
 0 <= g_7_8 <= 1
 0 <= g_7_9 <= 1
 0 <= g_7_10 <= 1
 0 <= g_8_1 <= 1
 0 <= g_8_2 <= 1
 0 <= g_8_3 <= 1
 0 <= g_8_4 <= 1
 0 <= g_8_5 <= 1
 0 <= g_8_6 <= 1
 0 <= g_8_7 <= 1
 0 <= g_8_8 <= 1
 0 <= g_8_9 <= 1
 0 <= g_8_10 <= 1
 0 <= g_9_1 <= 1
 0 <= g_9_2 <= 1
 0 <= g_9_3 <= 1
 0 <= g_9_4 <= 1
 0 <= g_9_5 <= 1
 0 <= g_9_6 <= 1
 0 <= g_9_7 <= 1
 0 <= g_9_8 <= 1
 0 <= g_9_9 <= 1
 0 <= g_9_10 <= 1
 0 <= g_10_1 <= 1
 0 <= g_10_2 <= 1
 0 <= g_10_3 <= 1
 0 <= g_10_4 <= 1
 0 <= g_10_5 <= 1
 0 <= g_10_6 <= 1
 0 <= g_10_7 <= 1
 0 <= g_10_8 <= 1
 0 <= g_10_9 <= 1
 0 <= g_10_10 <= 1
 0 <= g_11_1 <= 1
 0 <= g_11_2 <= 1
 0 <= g_11_3 <= 1
 0 <= g_11_4 <= 1
 0 <= g_11_5 <= 1
 0 <= g_11_6 <= 1
 0 <= g_11_7 <= 1
 0 <= g_11_8 <= 1
 0 <= g_11_9 <= 1
 0 <= g_11_10 <= 1
 0 <= g_12_1 <= 1
 0 <= g_12_2 <= 1
 0 <= g_12_3 <= 1
 0 <= g_12_4 <= 1
 0 <= g_12_5 <= 1
 0 <= g_12_6 <= 1
 0 <= g_12_7 <= 1
 0 <= g_12_8 <= 1
 0 <= g_12_9 <= 1
 0 <= g_12_10 <= 1
 0 <= g_13_1 <= 1
 0 <= g_13_2 <= 1
 0 <= g_13_3 <= 1
 0 <= g_13_4 <= 1
 0 <= g_13_5 <= 1
 0 <= g_13_6 <= 1
 0 <= g_13_7 <= 1
 0 <= g_13_8 <= 1
 0 <= g_13_9 <= 1
 0 <= g_13_10 <= 1
 0 <= h_1 <= 1
 0 <= h_2 <= 1
 0 <= h_3 <= 1
 0 <= h_4 <= 1
 0 <= h_5 <= 1
 0 <= h_6 <= 1
 0 <= h_7 <= 1
 0 <= h_8 <= 1
 0 <= h_9 <= 1
 0 <= h_10 <= 1
Binaries
 y1_1  y1_2  y1_3  y1_4  y1_5  y1_6  y1_7  y1_8  y1_9  y1_10  y1_11  y1_12 
 y1_13  q2_1  q2_2  q2_3  q2_4  q2_5  q2_6  q2_7  q2_8  q2_9  q2_10  q2_11 
 q2_12  q2_13  g_1_1  g_1_2  g_1_3  g_1_4  g_1_5  g_1_6  g_1_7  g_1_8  g_1_9 
 g_1_10  g_2_1  g_2_2  g_2_3  g_2_4  g_2_5  g_2_6  g_2_7  g_2_8  g_2_9  g_2_10 
 g_3_1  g_3_2  g_3_3  g_3_4  g_3_5  g_3_6  g_3_7  g_3_8  g_3_9  g_3_10  g_4_1 
 g_4_2  g_4_3  g_4_4  g_4_5  g_4_6  g_4_7  g_4_8  g_4_9  g_4_10  g_5_1  g_5_2 
 g_5_3  g_5_4  g_5_5  g_5_6  g_5_7  g_5_8  g_5_9  g_5_10  g_6_1  g_6_2  g_6_3 
 g_6_4  g_6_5  g_6_6  g_6_7  g_6_8  g_6_9  g_6_10  g_7_1  g_7_2  g_7_3  g_7_4 
 g_7_5  g_7_6  g_7_7  g_7_8  g_7_9  g_7_10  g_8_1  g_8_2  g_8_3  g_8_4  g_8_5 
 g_8_6  g_8_7  g_8_8  g_8_9  g_8_10  g_9_1  g_9_2  g_9_3  g_9_4  g_9_5  g_9_6 
 g_9_7  g_9_8  g_9_9  g_9_10  g_10_1  g_10_2  g_10_3  g_10_4  g_10_5  g_10_6 
 g_10_7  g_10_8  g_10_9  g_10_10  g_11_1  g_11_2  g_11_3  g_11_4  g_11_5 
 g_11_6  g_11_7  g_11_8  g_11_9  g_11_10  g_12_1  g_12_2  g_12_3  g_12_4 
 g_12_5  g_12_6  g_12_7  g_12_8  g_12_9  g_12_10  g_13_1  g_13_2  g_13_3 
 g_13_4  g_13_5  g_13_6  g_13_7  g_13_8  g_13_9  g_13_10  h_1  h_2  h_3  h_4 
 h_5  h_6  h_7  h_8  h_9  h_10 
Generals
 y2_1  y2_2  y2_3  y2_4  y2_5  y2_6  y2_7  y2_8  y2_9  y2_10  y2_11  y2_12 
 y2_13 
End
